&bands
outdir = './work/'
prefix = 'gr'
filband = 'gr.bands.dat'
/

