&control
 calculation = 'bands',
 restart_mode= 'from_scratch',
 prefix = 'gr',
 pseudo_dir = '.',
 outdir = './work/',
 max_seconds = 86400,
 verbosity = 'high',
/
&system
 ibrav = 4,
 celldm(1) = 4.6412,
 celldm(3) = 4.072,
 nat = 2,
 ntyp = 1,
 ecutwfc = 40.0,
 ecutrho = 400.0,
 occupations = 'smearing',
 smearing = 'm-p',
 degauss = 0.01,
/
&electrons
 mixing_beta = 0.7,
 conv_thr = 1.0d-6,
/
ATOMIC_SPECIES
C  12.0107  C.pbe-n-kjpaw_psl.1.0.0.UPF  
ATOMIC_POSITIONS (crystal)
 C   0.00000   0.00000   0.00000
 C   0.33333   0.66667   0.00000
K_POINTS {crystal_b}
4
0.0000  0.0000  0.0000  30 !G
0.3333  0.3333  0.0000  30 !K
0.5000  0.0000  0.0000  30 !M
0.0000  0.0000  0.0000  30 !G
