&CONTROL
 calculation = 'scf',
 restart_mode = 'from_scratch',
 prefix = 'gr',
 pseudo_dir = '.',
 outdir = './work/',
 max_seconds = 86400
/
&SYSTEM
 ibrav = 4,
 celldm(1) = 4.6412,
 celldm(3) = 4.072,
 nat = 2,
 ntyp = 1,
 ecutwfc = 40,
 ecutrho = 400.0,
 occupations = 'smearing'
 smearing = 'm-p'
 degauss = 0.01,
/
&ELECTRONS
 mixing_beta = 0.7,
 conv_thr= 1d-6,
/
ATOMIC_SPECIES
 C   12.01060   C.pbe-n-kjpaw_psl.1.0.0.UPF
ATOMIC_POSITIONS {crystal}
 C   0.00000   0.00000   0.00000
 C   0.33333   0.66667   0.00000
K_POINTS automatic
 6 6 1 0 0 0


